# Objective value = 1.9997471860487281e+03
x[0] 1
x[1] 1
x[2] 0
x[3] 1
x[4] 1
x[5] 1
x[6] 0
x[7] 0
x[8] 0
x[9] 1
x[10] 1
x[11] 1
x[12] 1
x[13] 0
x[14] 0
x[15] 1
x[16] 1
x[17] 1
x[18] 1
x[19] 1
x[20] 1
x[21] 0
x[22] 0
x[23] 0
x[24] 0
x[25] 0
x[26] 0
x[27] 1
x[28] 1
x[29] 0
x[30] 1
x[31] 1
x[32] 1
x[33] 1
x[34] 1
x[35] 0
x[36] 1
x[37] 1
x[38] 1
x[39] 1
x[40] 1
x[41] 0
x[42] 0
x[43] 0
x[44] 0
x[45] 0
x[46] 1
x[47] 1
x[48] 0
x[49] 0
x[50] 0
x[51] 1
x[52] 1
x[53] 0
x[54] 1
x[55] 0
x[56] 1
x[57] 0
x[58] 0
x[59] 1
x[60] 1
x[61] 1
x[62] 0
x[63] 0
x[64] 1
x[65] 0
x[66] 0
x[67] 0
x[68] 0
x[69] 1
x[70] 1
x[71] 1
x[72] 1
x[73] 0
x[74] 0
x[75] 0
x[76] 0
x[77] 1
x[78] 1
x[79] 1
x[80] 0
x[81] 1
x[82] 1
x[83] 0
x[84] 0
x[85] 0
x[86] 1
x[87] 1
x[88] 0
x[89] 1
x[90] 1
x[91] 0
x[92] 0
x[93] 0
x[94] 1
x[95] 1
x[96] 1
x[97] 1
x[98] 0
x[99] 0
x[100] 0
x[101] 0
x[102] 1
x[103] 0
x[104] 0
x[105] 1
x[106] 1
x[107] 1
x[108] 0
x[109] 1
x[110] 0
x[111] 0
x[112] 1
x[113] 1
x[114] 1
x[115] 0
x[116] 0
x[117] 0
x[118] 1
x[119] 1
x[120] 1
x[121] 1
x[122] 0
x[123] 1
x[124] 0
x[125] 0
x[126] 1
x[127] 1
x[128] 0
x[129] 1
x[130] 1
x[131] 0
x[132] 1
x[133] 1
x[134] 1
x[135] 0
x[136] 0
x[137] 1
x[138] 1
x[139] 0
x[140] 0
x[141] 0
x[142] 0
x[143] 1
x[144] 0
x[145] 1
x[146] 1
x[147] 1
x[148] 0
x[149] 0
x[150] 1
x[151] 0
x[152] 0
x[153] 1
x[154] 1
x[155] 1
x[156] 0
x[157] 1
x[158] 1
x[159] 0
x[160] 1
x[161] 1
x[162] 0
x[163] 0
x[164] 1
x[165] 1
x[166] 1
x[167] 0
x[168] 0
x[169] 0
x[170] 1
x[171] 0
x[172] 0
x[173] 1
x[174] 1
x[175] 1
x[176] 1
x[177] 0
x[178] 1
x[179] 1
x[180] 1
x[181] 1
x[182] 1
x[183] 1
x[184] 1
x[185] 1
x[186] 0
x[187] 1
x[188] 1
x[189] 1
x[190] 0
x[191] 1
x[192] 0
x[193] 1
x[194] 0
x[195] 0
x[196] 0
x[197] 0
x[198] 1
x[199] 1
x[200] 1
x[201] 1
x[202] 0
x[203] 0
x[204] 0
x[205] 1
x[206] 1
x[207] 1
x[208] 1
x[209] 1
x[210] 0
x[211] 0
x[212] 0
x[213] 0
x[214] 1
x[215] 1
x[216] 1
x[217] 0
x[218] 1
x[219] 1
x[220] 0
x[221] 0
x[222] 1
x[223] 0
x[224] 0
x[225] 0
x[226] 0
x[227] 1
x[228] 0
x[229] 1
x[230] 1
x[231] 1
x[232] 1
x[233] 0
x[234] 1
x[235] 0
x[236] 1
x[237] 0
x[238] 0
x[239] 1
x[240] 1
x[241] 0
x[242] 1
x[243] 0
x[244] 1
x[245] 1
x[246] 0
x[247] 1
x[248] 0
x[249] 1
x[250] 1
x[251] 1
x[252] 0
x[253] 1
x[254] 1
x[255] 0
x[256] 1
x[257] 1
x[258] 0
x[259] 0
x[260] 0
x[261] 0
x[262] 0
x[263] 0
x[264] 0
x[265] 1
x[266] 0
x[267] 1
x[268] 1
x[269] 0
x[270] 0
x[271] 0
x[272] 0
x[273] 1
x[274] 0
x[275] 0
x[276] 1
x[277] 1
x[278] 0
x[279] 1
x[280] 0
x[281] 0
x[282] 1
x[283] 1
x[284] 0
x[285] 0
x[286] 0
x[287] 1
x[288] 0
x[289] 0
x[290] 1
x[291] 1
x[292] 0
x[293] 0
x[294] 0
x[295] 1
x[296] 1
x[297] 1
x[298] 1
x[299] 0
x[300] 1
x[301] 1
x[302] 0
x[303] 0
x[304] 1
x[305] 1
x[306] 1
x[307] 1
x[308] 0
x[309] 1
x[310] 0
x[311] 1
x[312] 0
x[313] 1
x[314] 1
x[315] 0
x[316] 1
x[317] 0
x[318] 1
x[319] 0
x[320] 0
x[321] 0
x[322] 0
x[323] 1
x[324] 0
x[325] 1
x[326] 1
x[327] 1
x[328] 0
x[329] 1
x[330] 1
x[331] 1
x[332] 1
x[333] 1
x[334] 0
x[335] 0
x[336] 1
x[337] 1
x[338] 0
x[339] 1
x[340] 1
x[341] 1
x[342] 0
x[343] 1
x[344] 1
x[345] 0
x[346] 0
x[347] 1
x[348] 0
x[349] 0
x[350] 1
x[351] 1
x[352] 0
x[353] 1
x[354] 0
x[355] 0
x[356] 1
x[357] 1
x[358] 0
x[359] 0
x[360] 1
x[361] 0
x[362] 0
x[363] 1
x[364] 0
x[365] 1
x[366] 0
x[367] 1
x[368] 1
x[369] 1
x[370] 1
x[371] 1
x[372] 1
x[373] 0
x[374] 0
x[375] 0
x[376] 1
x[377] 0
x[378] 1
x[379] 0
x[380] 1
x[381] 0
x[382] 1
x[383] 0
x[384] 1
x[385] 1
x[386] 1
x[387] 0
x[388] 1
x[389] 0
x[390] 0
x[391] 0
x[392] 1
x[393] 1
x[394] 1
x[395] 0
x[396] 0
x[397] 0
x[398] 1
x[399] 0
x[400] 0
x[401] 1
x[402] 1
x[403] 1
x[404] 0
x[405] 0
x[406] 0
x[407] 1
x[408] 1
x[409] 1
x[410] 1
x[411] 1
x[412] 0
x[413] 1
x[414] 1
x[415] 1
x[416] 1
x[417] 1
x[418] 0
x[419] 1
x[420] 1
x[421] 1
x[422] 0
x[423] 0
x[424] 0
x[425] 1
x[426] 0
x[427] 1
x[428] 1
x[429] 1
x[430] 0
x[431] 0
x[432] 1
x[433] 1
x[434] 1
x[435] 0
x[436] 0
x[437] 1
x[438] 0
x[439] 1
x[440] 0
x[441] 1
x[442] 0
x[443] 0
x[444] 0
x[445] 1
x[446] 1
x[447] 0
x[448] 1
x[449] 0
x[450] 1
x[451] 1
x[452] 1
x[453] 1
x[454] 1
x[455] 0
x[456] 1
x[457] 0
x[458] 1
x[459] 1
x[460] 0
x[461] 1
x[462] 1
x[463] 0
x[464] 0
x[465] 1
x[466] 1
x[467] 1
x[468] 1
x[469] 1
x[470] 1
x[471] 1
x[472] 0
x[473] 0
x[474] 1
x[475] 1
x[476] 1
x[477] 0
x[478] 1
x[479] 1
x[480] 0
x[481] 0
x[482] 1
x[483] 0
x[484] 0
x[485] 0
x[486] 0
x[487] 1
x[488] 0
x[489] 1
x[490] 1
x[491] 1
x[492] 0
x[493] 1
x[494] 0
x[495] 1
x[496] 0
x[497] 1
x[498] 0
x[499] 0
x[500] 1
x[501] 1
x[502] 1
x[503] 1
x[504] 0
x[505] 1
x[506] 0
x[507] 0
x[508] 1
x[509] 1
x[510] 0
x[511] 1
x[512] 0
x[513] 1
x[514] 1
x[515] 1
x[516] 1
x[517] 1
x[518] 1
x[519] 1
x[520] 1
x[521] 1
x[522] 1
x[523] 0
x[524] 1
x[525] 0
x[526] 0
x[527] 0
x[528] 0
x[529] 1
x[530] 1
x[531] 0
x[532] 0
x[533] 0
x[534] 1
x[535] 1
x[536] 1
x[537] 0
x[538] 0
x[539] 0
x[540] 1
x[541] 1
x[542] 0
x[543] 0
x[544] 0
x[545] 0
x[546] 1
x[547] 0
x[548] 1
x[549] 1
x[550] 1
x[551] 1
x[552] 0
x[553] 1
x[554] 0
x[555] 0
x[556] 1
x[557] 0
x[558] 0
x[559] 0
x[560] 1
x[561] 1
x[562] 0
x[563] 1
x[564] 1
x[565] 0
x[566] 0
x[567] 1
x[568] 0
x[569] 1
x[570] 1
x[571] 0
x[572] 0
x[573] 1
x[574] 1
x[575] 1
x[576] 1
x[577] 0
x[578] 0
x[579] 0
x[580] 1
x[581] 0
x[582] 0
x[583] 0
x[584] 1
x[585] 1
x[586] 1
x[587] 0
x[588] 1
x[589] 0
x[590] 0
x[591] 1
x[592] 1
x[593] 1
x[594] 1
x[595] 1
x[596] 0
x[597] 0
x[598] 0
x[599] 1
x[600] 1
x[601] 0
x[602] 0
x[603] 0
x[604] 0
x[605] 1
x[606] 1
x[607] 1
x[608] 1
x[609] 1
x[610] 1
x[611] 1
x[612] 1
x[613] 1
x[614] 1
x[615] 1
x[616] 1
x[617] 0
x[618] 1
x[619] 1
x[620] 1
x[621] 1
x[622] 0
x[623] 0
x[624] 0
x[625] 1
x[626] 1
x[627] 0
x[628] 0
x[629] 0
x[630] 1
x[631] 0
x[632] 1
x[633] 0
x[634] 1
x[635] 1
x[636] 1
x[637] 1
x[638] 1
x[639] 0
x[640] 0
x[641] 1
x[642] 1
x[643] 1
x[644] 1
x[645] 1
x[646] 0
x[647] 1
x[648] 1
x[649] 0
x[650] 0
x[651] 1
x[652] 0
x[653] 0
x[654] 1
x[655] 0
x[656] 1
x[657] 1
x[658] 0
x[659] 0
x[660] 1
x[661] 1
x[662] 0
x[663] 0
x[664] 1
x[665] 1
x[666] 1
x[667] 0
x[668] 1
x[669] 1
x[670] 1
x[671] 1
x[672] 0
x[673] 0
x[674] 1
x[675] 1
x[676] 0
x[677] 0
x[678] 1
x[679] 0
x[680] 0
x[681] 0
x[682] 1
x[683] 0
x[684] 1
x[685] 1
x[686] 1
x[687] 1
x[688] 1
x[689] 0
x[690] 0
x[691] 1
x[692] 1
x[693] 1
x[694] 1
x[695] 1
x[696] 0
x[697] 0
x[698] 1
x[699] 0
x[700] 1
x[701] 0
x[702] 1
x[703] 1
x[704] 1
x[705] 0
x[706] 0
x[707] 0
x[708] 1
x[709] 1
x[710] 0
x[711] 0
x[712] 0
x[713] 0
x[714] 1
x[715] 1
x[716] 1
x[717] 0
x[718] 0
x[719] 0
x[720] 1
x[721] 0
x[722] 1
x[723] 0
x[724] 1
x[725] 0
x[726] 1
x[727] 1
x[728] 1
x[729] 0
x[730] 0
x[731] 1
x[732] 0
x[733] 0
x[734] 1
x[735] 1
x[736] 1
x[737] 1
x[738] 1
x[739] 1
x[740] 1
x[741] 1
x[742] 1
x[743] 0
x[744] 1
x[745] 0
x[746] 0
x[747] 1
x[748] 1
x[749] 1
x[750] 1
x[751] 0
x[752] 1
x[753] 1
x[754] 1
x[755] 0
x[756] 0
x[757] 0
x[758] 0
x[759] 1
x[760] 1
x[761] 0
x[762] 0
x[763] 1
x[764] 1
x[765] 1
x[766] 1
x[767] 0
x[768] 0
x[769] 0
x[770] 1
x[771] 1
x[772] 0
x[773] 0
x[774] 1
x[775] 0
x[776] 1
x[777] 1
x[778] 1
x[779] 0
x[780] 1
x[781] 1
x[782] 1
x[783] 1
x[784] 0
x[785] 1
x[786] 1
x[787] 0
x[788] 0
x[789] 0
x[790] 1
x[791] 0
x[792] 1
x[793] 1
x[794] 1
x[795] 0
x[796] 1
x[797] 0
x[798] 0
x[799] 0
x[800] 1
x[801] 0
x[802] 0
x[803] 0
x[804] 1
x[805] 1
x[806] 1
x[807] 1
x[808] 1
x[809] 0
x[810] 1
x[811] 1
x[812] 0
x[813] 0
x[814] 1
x[815] 0
x[816] 0
x[817] 1
x[818] 0
x[819] 0
x[820] 0
x[821] 0
x[822] 1
x[823] 0
x[824] 1
x[825] 0
x[826] 0
x[827] 1
x[828] 1
x[829] 0
x[830] 1
x[831] 1
x[832] 0
x[833] 1
x[834] 0
x[835] 0
x[836] 1
x[837] 1
x[838] 0
x[839] 1
x[840] 0
x[841] 1
x[842] 1
x[843] 0
x[844] 0
x[845] 0
x[846] 0
x[847] 1
x[848] 1
x[849] 1
x[850] 1
x[851] 1
x[852] 0
x[853] 0
x[854] 0
x[855] 0
x[856] 0
x[857] 0
x[858] 0
x[859] 1
x[860] 0
x[861] 1
x[862] 1
x[863] 1
x[864] 1
x[865] 1
x[866] 1
x[867] 1
x[868] 0
x[869] 0
x[870] 1
x[871] 1
x[872] 0
x[873] 0
x[874] 1
x[875] 0
x[876] 1
x[877] 1
x[878] 1
x[879] 1
x[880] 1
x[881] 0
x[882] 0
x[883] 1
x[884] 0
x[885] 0
x[886] 1
x[887] 0
x[888] 0
x[889] 1
x[890] 1
x[891] 1
x[892] 0
x[893] 0
x[894] 1
x[895] 1
x[896] 1
x[897] 1
x[898] 0
x[899] 0
x[900] 1
x[901] 1
x[902] 0
x[903] 1
x[904] 1
x[905] 1
x[906] 0
x[907] 1
x[908] 1
x[909] 1
x[910] 1
x[911] 0
x[912] 1
x[913] 1
x[914] 1
x[915] 1
x[916] 1
x[917] 1
x[918] 0
x[919] 0
x[920] 1
x[921] 1
x[922] 0
x[923] 1
x[924] 1
x[925] 1
x[926] 0
x[927] 1
x[928] 1
x[929] 1
x[930] 1
x[931] 1
x[932] 1
x[933] 1
x[934] 0
x[935] 1
x[936] 0
x[937] 1
x[938] 1
x[939] 0
x[940] 1
x[941] 0
x[942] 1
x[943] 1
x[944] 1
x[945] 0
x[946] 0
x[947] 1
x[948] 0
x[949] 0
x[950] 1
x[951] 1
x[952] 1
x[953] 1
x[954] 0
x[955] 0
x[956] 0
x[957] 1
x[958] 1
x[959] 1
x[960] 0
x[961] 1
x[962] 0
x[963] 1
x[964] 1
x[965] 0
x[966] 1
x[967] 0
x[968] 1
x[969] 1
x[970] 1
x[971] 0
x[972] 1
x[973] 1
x[974] 1
x[975] 0
x[976] 1
x[977] 0
x[978] 1
x[979] 1
x[980] 0
x[981] 1
x[982] 1
x[983] 1
x[984] 1
x[985] 1
x[986] 1
x[987] 0
x[988] 0
x[989] 1
x[990] 0
x[991] 1
x[992] 1
x[993] 1
x[994] 0
x[995] 1
x[996] 0
x[997] 0
x[998] 1
x[999] 1
